QPLIB_3852
QBB
maximize
231 # number of variables
440 # number of quadratic terms in objective
2 1 4.0
28 1 -4.0
88 1 4.0
97 1 -4.0
95 2 -4.0
96 2 -4.0
187 2 4.0
130 3 -4.0
151 3 4.0
174 3 4.0
192 3 -4.0
5 4 4.0
70 4 -4.0
201 4 4.0
202 4 -4.0
13 5 -4.0
71 5 -4.0
229 5 4.0
7 6 4.0
36 6 4.0
119 6 -4.0
140 6 -4.0
35 7 4.0
73 7 -4.0
75 7 -4.0
17 8 -4.0
70 8 4.0
198 8 -4.0
224 8 4.0
10 9 4.0
11 9 -4.0
30 9 4.0
121 9 -4.0
72 10 -4.0
73 10 -4.0
161 10 4.0
39 11 4.0
40 11 4.0
77 11 -4.0
22 12 -4.0
143 12 4.0
163 12 -4.0
182 12 4.0
23 13 4.0
151 13 -4.0
227 13 4.0
19 14 4.0
74 14 -4.0
106 14 -4.0
137 14 4.0
107 15 -4.0
141 15 -4.0
165 15 4.0
209 15 4.0
143 16 -4.0
145 16 4.0
165 16 4.0
168 16 -4.0
42 17 4.0
176 17 4.0
223 17 -4.0
72 18 -4.0
138 18 4.0
72 19 -4.0
181 19 4.0
208 19 -4.0
44 20 4.0
86 20 4.0
122 20 -4.0
181 20 -4.0
22 21 -4.0
32 21 4.0
185 21 4.0
188 21 -4.0
50 22 4.0
124 22 4.0
129 23 4.0
150 23 -4.0
196 23 -4.0
73 24 -4.0
118 24 4.0
40 25 4.0
141 25 -4.0
161 25 -4.0
209 25 4.0
47 26 4.0
208 26 -4.0
209 26 -4.0
210 26 4.0
107 27 -4.0
167 27 4.0
213 27 4.0
216 27 -4.0
33 28 4.0
147 28 -4.0
167 28 4.0
35 29 -4.0
163 29 -4.0
182 29 4.0
207 29 4.0
160 30 -4.0
182 30 -4.0
183 30 4.0
60 31 -4.0
95 31 4.0
182 31 4.0
183 31 -4.0
76 32 -4.0
124 32 -4.0
169 32 4.0
76 33 -4.0
84 33 4.0
90 33 -4.0
58 34 4.0
111 34 -4.0
173 34 -4.0
224 34 4.0
63 35 4.0
139 35 -4.0
47 36 -4.0
52 36 4.0
163 36 -4.0
52 37 -4.0
64 37 -4.0
163 37 4.0
213 37 4.0
55 38 4.0
100 38 -4.0
149 38 -4.0
194 38 4.0
62 39 -4.0
204 39 4.0
206 39 -4.0
106 40 -4.0
121 40 -4.0
79 41 4.0
88 41 -4.0
124 41 4.0
186 41 -4.0
46 42 -4.0
127 42 -4.0
195 42 4.0
49 43 4.0
85 43 -4.0
102 43 4.0
114 43 -4.0
120 44 4.0
140 44 -4.0
206 44 -4.0
81 45 4.0
83 45 -4.0
144 45 4.0
166 45 -4.0
82 46 -4.0
219 46 4.0
222 46 4.0
139 47 4.0
180 47 -4.0
51 48 4.0
101 48 -4.0
103 48 4.0
115 48 -4.0
103 49 -4.0
96 50 -4.0
142 50 4.0
183 50 -4.0
54 51 4.0
91 51 -4.0
112 51 -4.0
87 52 4.0
162 52 -4.0
170 53 4.0
215 53 4.0
216 53 -4.0
218 53 -4.0
55 54 4.0
101 54 -4.0
195 54 -4.0
175 55 -4.0
176 55 -4.0
108 56 4.0
211 56 4.0
212 56 -4.0
214 56 -4.0
69 57 4.0
126 57 4.0
189 57 -4.0
217 57 -4.0
112 58 4.0
150 58 -4.0
152 58 -4.0
123 59 4.0
207 59 4.0
208 59 -4.0
210 59 -4.0
124 60 4.0
184 60 4.0
186 60 -4.0
62 61 4.0
137 61 4.0
139 61 -4.0
159 61 -4.0
142 63 4.0
181 63 -4.0
183 63 -4.0
144 64 4.0
164 64 4.0
166 64 -4.0
66 65 4.0
158 65 4.0
159 65 -4.0
180 65 -4.0
205 66 -4.0
68 67 4.0
178 67 -4.0
228 68 4.0
229 68 -4.0
231 68 -4.0
192 69 4.0
218 69 -4.0
221 69 -4.0
71 70 -4.0
154 70 -4.0
131 71 -4.0
194 71 4.0
158 72 4.0
179 73 4.0
77 74 -4.0
105 75 -4.0
119 75 -4.0
204 75 4.0
89 76 -4.0
187 76 4.0
117 77 -4.0
119 77 -4.0
89 78 -4.0
98 78 -4.0
145 78 -4.0
215 78 4.0
98 79 -4.0
109 79 -4.0
168 79 -4.0
92 80 -4.0
202 80 -4.0
109 81 -4.0
125 81 -4.0
188 81 -4.0
89 82 4.0
100 82 -4.0
109 82 -4.0
125 83 -4.0
146 83 -4.0
216 83 -4.0
100 84 -4.0
111 84 -4.0
125 84 -4.0
115 85 -4.0
87 86 -4.0
94 86 -4.0
162 86 -4.0
95 87 -4.0
107 87 -4.0
146 88 -4.0
170 88 -4.0
99 89 -4.0
111 90 -4.0
127 90 -4.0
146 90 -4.0
92 91 4.0
113 91 -4.0
135 91 -4.0
93 92 -4.0
134 92 -4.0
135 93 -4.0
96 94 -4.0
122 94 -4.0
185 94 4.0
97 95 -4.0
97 96 -4.0
187 97 -4.0
110 98 -4.0
219 98 -4.0
127 99 -4.0
149 99 -4.0
170 99 -4.0
128 100 -4.0
102 101 -4.0
132 101 -4.0
133 102 -4.0
156 102 -4.0
104 103 -4.0
155 103 -4.0
156 104 -4.0
118 105 -4.0
118 106 -4.0
160 106 -4.0
108 107 4.0
167 108 -4.0
215 108 4.0
126 109 -4.0
149 110 -4.0
173 110 -4.0
218 110 4.0
222 111 -4.0
113 112 -4.0
225 112 -4.0
114 113 -4.0
152 113 -4.0
153 114 -4.0
178 114 -4.0
116 115 -4.0
228 115 -4.0
178 116 -4.0
138 117 -4.0
120 118 -4.0
207 119 4.0
138 120 -4.0
207 120 -4.0
122 121 -4.0
123 121 4.0
184 122 4.0
184 123 -4.0
211 123 4.0
148 125 -4.0
173 126 -4.0
191 126 -4.0
129 127 -4.0
130 128 -4.0
131 128 -4.0
221 128 -4.0
131 129 -4.0
191 129 -4.0
132 130 4.0
196 130 -4.0
132 131 -4.0
133 132 -4.0
134 133 -4.0
176 133 -4.0
177 134 -4.0
201 134 -4.0
136 135 -4.0
200 135 -4.0
201 136 -4.0
139 138 -4.0
141 140 -4.0
142 140 4.0
164 141 4.0
164 142 -4.0
144 143 4.0
211 143 4.0
145 144 -4.0
169 145 -4.0
172 146 -4.0
169 147 -4.0
172 147 -4.0
219 147 -4.0
171 148 4.0
191 148 -4.0
220 148 -4.0
150 149 -4.0
220 150 -4.0
152 151 4.0
222 151 4.0
153 152 -4.0
155 153 -4.0
197 153 -4.0
178 154 4.0
198 154 -4.0
230 154 -4.0
199 155 -4.0
230 155 -4.0
157 156 -4.0
229 156 -4.0
230 157 -4.0
160 159 4.0
161 159 -4.0
162 160 -4.0
162 161 -4.0
185 164 4.0
166 165 4.0
184 165 4.0
168 166 -4.0
189 167 4.0
189 168 -4.0
171 169 -4.0
190 170 -4.0
189 171 -4.0
190 171 -4.0
174 172 -4.0
220 172 -4.0
175 173 -4.0
175 174 -4.0
190 174 -4.0
224 175 -4.0
177 176 -4.0
226 177 -4.0
228 177 -4.0
205 179 4.0
181 180 -4.0
205 180 -4.0
186 185 4.0
188 186 -4.0
217 187 4.0
217 188 -4.0
192 190 -4.0
193 191 -4.0
193 192 -4.0
194 193 -4.0
195 193 -4.0
197 194 4.0
197 195 -4.0
198 196 -4.0
199 196 4.0
199 197 -4.0
200 198 4.0
200 199 -4.0
202 200 -4.0
203 201 -4.0
203 202 -4.0
206 205 -4.0
208 206 -4.0
212 209 4.0
211 210 -4.0
212 210 -4.0
213 212 -4.0
214 213 4.0
215 214 -4.0
216 214 -4.0
218 217 -4.0
221 219 -4.0
223 220 -4.0
223 221 -4.0
225 222 4.0
225 223 -4.0
226 224 4.0
226 225 -4.0
227 226 -4.0
228 227 -4.0
229 227 -4.0
231 230 -4.0
0.0 # default value for linear coefficients in objective
162 # number of non-default linear coefficients in objective
70 2.0
71 2.0
72 2.0
73 2.0
74 2.0
75 2.0
76 2.0
77 4.0
78 2.0
79 2.0
80 2.0
81 2.0
82 2.0
83 4.0
84 2.0
85 2.0
86 2.0
87 2.0
88 2.0
89 2.0
90 4.0
91 2.0
92 2.0
93 2.0
94 2.0
95 2.0
96 4.0
97 4.0
98 4.0
99 4.0
100 4.0
101 4.0
102 2.0
103 2.0
104 2.0
105 2.0
106 4.0
107 2.0
108 -2.0
109 4.0
110 2.0
111 4.0
112 2.0
113 4.0
114 4.0
115 4.0
116 2.0
117 2.0
118 2.0
119 2.0
120 2.0
121 2.0
122 2.0
123 -2.0
124 -2.0
125 4.0
126 2.0
127 4.0
128 4.0
129 2.0
130 2.0
131 4.0
132 2.0
133 4.0
134 4.0
135 4.0
136 2.0
137 -2.0
138 2.0
139 2.0
140 2.0
141 2.0
142 -2.0
143 -2.0
144 -2.0
145 2.0
146 4.0
147 4.0
148 2.0
149 4.0
150 4.0
151 -2.0
152 2.0
153 4.0
154 2.0
155 4.0
156 4.0
157 2.0
158 -2.0
159 2.0
160 2.0
161 2.0
162 4.0
163 2.0
164 -2.0
165 -4.0
166 2.0
167 -2.0
168 4.0
169 2.0
170 2.0
171 2.0
172 4.0
173 4.0
174 2.0
175 4.0
176 2.0
177 4.0
178 2.0
179 -2.0
180 4.0
181 2.0
182 -2.0
183 2.0
184 -2.0
185 -4.0
186 2.0
187 -2.0
188 4.0
189 2.0
190 4.0
191 4.0
192 2.0
193 4.0
194 -2.0
195 2.0
196 2.0
197 2.0
198 2.0
199 2.0
200 2.0
201 2.0
202 4.0
203 2.0
204 -2.0
205 2.0
206 4.0
207 -2.0
208 4.0
209 -2.0
210 2.0
211 -2.0
212 2.0
213 -2.0
214 2.0
215 -2.0
216 4.0
217 2.0
218 2.0
219 2.0
220 4.0
221 4.0
222 -2.0
223 4.0
224 -2.0
225 2.0
226 2.0
227 2.0
228 2.0
229 2.0
230 4.0
231 2.0
0.0 # objective constant
1.79769313486232E+308 # value for infinity
0.0 # default variable primal value in starting point
0 # number of non-default variable primal values in starting point
0.0 # default variable bound dual value in starting point
0 # number of non-default variable bound dual values in starting point
0 # number of non-default variable names
0 # number of non-default constraint names
